p cnf 200 907
-1 -149 0
-1 -150 0
-2 149 0
-2 -150 0
-3 -149 0
-3 150 0
-4 149 0
-4 150 0
-1 25 0
-1 5 0
-2 26 0
-2 6 0
-3 27 0
-3 7 0
-4 28 0
-4 8 0
-5 -151 0
-5 -152 0
-6 151 0
-6 -152 0
-7 -151 0
-7 152 0
-8 151 0
-8 152 0
-5 1 9 0
-5 1 29 0
-5 9 29 0
-6 2 10 0
-6 2 30 0
-6 10 30 0
-7 3 11 0
-7 3 31 0
-7 11 31 0
-8 4 12 0
-8 4 32 0
-8 12 32 0
-5 -1 -9 -29 0
-6 -2 -10 -30 0
-7 -3 -11 -31 0
-8 -4 -12 -32 0
-9 -153 0
-9 -154 0
-10 153 0
-10 -154 0
-11 -153 0
-11 154 0
-12 153 0
-12 154 0
-9 5 13 0
-9 5 33 0
-9 13 33 0
-10 6 14 0
-10 6 34 0
-10 14 34 0
-11 7 15 0
-11 7 35 0
-11 15 35 0
-12 8 16 0
-12 8 36 0
-12 16 36 0
-9 -5 -13 -33 0
-10 -6 -14 -34 0
-11 -7 -15 -35 0
-12 -8 -16 -36 0
15 0
-13 0
-14 0
-16 0
11 19 39 0
-11 -19 0
-11 -39 0
-19 -39 0
-17 -157 0
-17 -158 0
-18 157 0
-18 -158 0
-19 -157 0
-19 158 0
-20 157 0
-20 158 0
-17 13 21 0
-17 13 41 0
-17 21 41 0
-18 14 22 0
-18 14 42 0
-18 22 42 0
-19 15 23 0
-19 15 43 0
-19 23 43 0
-20 16 24 0
-20 16 44 0
-20 24 44 0
-17 -13 -21 -41 0
-18 -14 -22 -42 0
-19 -15 -23 -43 0
-20 -16 -24 -44 0
22 0
-21 0
-23 0
-24 0
46 18 0
-46 -18 0
-25 -161 0
-25 -162 0
-26 161 0
-26 -162 0
-27 -161 0
-27 162 0
-28 161 0
-28 162 0
-25 49 29 0
-25 49 1 0
-25 29 1 0
-26 50 30 0
-26 50 2 0
-26 30 2 0
-27 51 31 0
-27 51 3 0
-27 31 3 0
-28 52 32 0
-28 52 4 0
-28 32 4 0
-25 -49 -29 -1 0
-26 -50 -30 -2 0
-27 -51 -31 -3 0
-28 -52 -32 -4 0
32 0
-29 0
-30 0
-31 0
56 36 8 28 0
-56 -36 0
-56 -8 0
-56 -28 0
-36 -8 0
-36 -28 0
-8 -28 0
-33 -165 0
-33 -166 0
-34 165 0
-34 -166 0
-35 -165 0
-35 166 0
-36 165 0
-36 166 0
-33 57 37 9 0
-33 57 37 29 0
-33 57 9 29 0
-33 37 9 29 0
-34 58 38 10 0
-34 58 38 30 0
-34 58 10 30 0
-34 38 10 30 0
-35 59 39 11 0
-35 59 39 31 0
-35 59 11 31 0
-35 39 11 31 0
-36 60 40 12 0
-36 60 40 32 0
-36 60 12 32 0
-36 40 12 32 0
-33 -57 -37 -9 0
-33 -57 -37 -29 0
-33 -57 -9 -29 0
-33 -37 -9 -29 0
-34 -58 -38 -10 0
-34 -58 -38 -30 0
-34 -58 -10 -30 0
-34 -38 -10 -30 0
-35 -59 -39 -11 0
-35 -59 -39 -31 0
-35 -59 -11 -31 0
-35 -39 -11 -31 0
-36 -60 -40 -12 0
-36 -60 -40 -32 0
-36 -60 -12 -32 0
-36 -40 -12 -32 0
-37 -167 0
-37 -168 0
-38 167 0
-38 -168 0
-39 -167 0
-39 168 0
-40 167 0
-40 168 0
-37 61 41 13 0
-37 61 41 33 0
-37 61 13 33 0
-37 41 13 33 0
-38 62 42 14 0
-38 62 42 34 0
-38 62 14 34 0
-38 42 14 34 0
-39 63 43 15 0
-39 63 43 35 0
-39 63 15 35 0
-39 43 15 35 0
-40 64 44 16 0
-40 64 44 36 0
-40 64 16 36 0
-40 44 16 36 0
-37 -61 -41 -13 0
-37 -61 -41 -33 0
-37 -61 -13 -33 0
-37 -41 -13 -33 0
-38 -62 -42 -14 0
-38 -62 -42 -34 0
-38 -62 -14 -34 0
-38 -42 -14 -34 0
-39 -63 -43 -15 0
-39 -63 -43 -35 0
-39 -63 -15 -35 0
-39 -43 -15 -35 0
-40 -64 -44 -16 0
-40 -64 -44 -36 0
-40 -64 -16 -36 0
-40 -44 -16 -36 0
42 0
-41 0
-43 0
-44 0
66 46 18 38 0
-66 -46 0
-66 -18 0
-66 -38 0
-46 -18 0
-46 -38 0
-18 -38 0
45 0
-46 0
-47 0
-48 0
69 41 21 0
-69 -41 0
-69 -21 0
-41 -21 0
-49 -173 0
-49 -174 0
-50 173 0
-50 -174 0
-51 -173 0
-51 174 0
-52 173 0
-52 174 0
-49 73 53 0
-49 73 25 0
-49 53 25 0
-50 74 54 0
-50 74 26 0
-50 54 26 0
-51 75 55 0
-51 75 27 0
-51 55 27 0
-52 76 56 0
-52 76 28 0
-52 56 28 0
-49 -73 -53 -25 0
-50 -74 -54 -26 0
-51 -75 -55 -27 0
-52 -76 -56 -28 0
-53 -175 0
-53 -176 0
-54 175 0
-54 -176 0
-55 -175 0
-55 176 0
-56 175 0
-56 176 0
-53 77 57 29 0
-53 77 57 49 0
-53 77 29 49 0
-53 57 29 49 0
-54 78 58 30 0
-54 78 58 50 0
-54 78 30 50 0
-54 58 30 50 0
-55 79 59 31 0
-55 79 59 51 0
-55 79 31 51 0
-55 59 31 51 0
-56 80 60 32 0
-56 80 60 52 0
-56 80 32 52 0
-56 60 32 52 0
-53 -77 -57 -29 0
-53 -77 -57 -49 0
-53 -77 -29 -49 0
-53 -57 -29 -49 0
-54 -78 -58 -30 0
-54 -78 -58 -50 0
-54 -78 -30 -50 0
-54 -58 -30 -50 0
-55 -79 -59 -31 0
-55 -79 -59 -51 0
-55 -79 -31 -51 0
-55 -59 -31 -51 0
-56 -80 -60 -32 0
-56 -80 -60 -52 0
-56 -80 -32 -52 0
-56 -60 -32 -52 0
-57 -177 0
-57 -178 0
-58 177 0
-58 -178 0
-59 -177 0
-59 178 0
-60 177 0
-60 178 0
-57 81 61 33 0
-57 81 61 53 0
-57 81 33 53 0
-57 61 33 53 0
-58 82 62 34 0
-58 82 62 54 0
-58 82 34 54 0
-58 62 34 54 0
-59 83 63 35 0
-59 83 63 55 0
-59 83 35 55 0
-59 63 35 55 0
-60 84 64 36 0
-60 84 64 56 0
-60 84 36 56 0
-60 64 36 56 0
-57 -81 -61 -33 0
-57 -81 -61 -53 0
-57 -81 -33 -53 0
-57 -61 -33 -53 0
-58 -82 -62 -34 0
-58 -82 -62 -54 0
-58 -82 -34 -54 0
-58 -62 -34 -54 0
-59 -83 -63 -35 0
-59 -83 -63 -55 0
-59 -83 -35 -55 0
-59 -63 -35 -55 0
-60 -84 -64 -36 0
-60 -84 -64 -56 0
-60 -84 -36 -56 0
-60 -64 -36 -56 0
-61 -179 0
-61 -180 0
-62 179 0
-62 -180 0
-63 -179 0
-63 180 0
-64 179 0
-64 180 0
-61 85 65 37 0
-61 85 65 57 0
-61 85 37 57 0
-61 65 37 57 0
-62 86 66 38 0
-62 86 66 58 0
-62 86 38 58 0
-62 66 38 58 0
-63 87 67 39 0
-63 87 67 59 0
-63 87 39 59 0
-63 67 39 59 0
-64 88 68 40 0
-64 88 68 60 0
-64 88 40 60 0
-64 68 40 60 0
-61 -85 -65 -37 0
-61 -85 -65 -57 0
-61 -85 -37 -57 0
-61 -65 -37 -57 0
-62 -86 -66 -38 0
-62 -86 -66 -58 0
-62 -86 -38 -58 0
-62 -66 -38 -58 0
-63 -87 -67 -39 0
-63 -87 -67 -59 0
-63 -87 -39 -59 0
-63 -67 -39 -59 0
-64 -88 -68 -40 0
-64 -88 -68 -60 0
-64 -88 -40 -60 0
-64 -68 -40 -60 0
67 0
-65 0
-66 0
-68 0
91 71 43 63 0
-91 -71 0
-91 -43 0
-91 -63 0
-71 -43 0
-71 -63 0
-43 -63 0
-69 -183 0
-69 -184 0
-70 183 0
-70 -184 0
-71 -183 0
-71 184 0
-72 183 0
-72 184 0
-69 93 65 0
-69 93 45 0
-69 65 45 0
-70 94 66 0
-70 94 46 0
-70 66 46 0
-71 95 67 0
-71 95 47 0
-71 67 47 0
-72 96 68 0
-72 96 48 0
-72 68 48 0
-69 -93 -65 -45 0
-70 -94 -66 -46 0
-71 -95 -67 -47 0
-72 -96 -68 -48 0
-73 -185 0
-73 -186 0
-74 185 0
-74 -186 0
-75 -185 0
-75 186 0
-76 185 0
-76 186 0
-73 97 77 0
-73 97 49 0
-73 77 49 0
-74 98 78 0
-74 98 50 0
-74 78 50 0
-75 99 79 0
-75 99 51 0
-75 79 51 0
-76 100 80 0
-76 100 52 0
-76 80 52 0
-73 -97 -77 -49 0
-74 -98 -78 -50 0
-75 -99 -79 -51 0
-76 -100 -80 -52 0
-77 -187 0
-77 -188 0
-78 187 0
-78 -188 0
-79 -187 0
-79 188 0
-80 187 0
-80 188 0
-77 101 81 53 0
-77 101 81 73 0
-77 101 53 73 0
-77 81 53 73 0
-78 102 82 54 0
-78 102 82 74 0
-78 102 54 74 0
-78 82 54 74 0
-79 103 83 55 0
-79 103 83 75 0
-79 103 55 75 0
-79 83 55 75 0
-80 104 84 56 0
-80 104 84 76 0
-80 104 56 76 0
-80 84 56 76 0
-77 -101 -81 -53 0
-77 -101 -81 -73 0
-77 -101 -53 -73 0
-77 -81 -53 -73 0
-78 -102 -82 -54 0
-78 -102 -82 -74 0
-78 -102 -54 -74 0
-78 -82 -54 -74 0
-79 -103 -83 -55 0
-79 -103 -83 -75 0
-79 -103 -55 -75 0
-79 -83 -55 -75 0
-80 -104 -84 -56 0
-80 -104 -84 -76 0
-80 -104 -56 -76 0
-80 -84 -56 -76 0
-81 -189 0
-81 -190 0
-82 189 0
-82 -190 0
-83 -189 0
-83 190 0
-84 189 0
-84 190 0
-81 105 85 57 0
-81 105 85 77 0
-81 105 57 77 0
-81 85 57 77 0
-82 106 86 58 0
-82 106 86 78 0
-82 106 58 78 0
-82 86 58 78 0
-83 107 87 59 0
-83 107 87 79 0
-83 107 59 79 0
-83 87 59 79 0
-84 108 88 60 0
-84 108 88 80 0
-84 108 60 80 0
-84 88 60 80 0
-81 -105 -85 -57 0
-81 -105 -85 -77 0
-81 -105 -57 -77 0
-81 -85 -57 -77 0
-82 -106 -86 -58 0
-82 -106 -86 -78 0
-82 -106 -58 -78 0
-82 -86 -58 -78 0
-83 -107 -87 -59 0
-83 -107 -87 -79 0
-83 -107 -59 -79 0
-83 -87 -59 -79 0
-84 -108 -88 -60 0
-84 -108 -88 -80 0
-84 -108 -60 -80 0
-84 -88 -60 -80 0
85 0
-86 0
-87 0
-88 0
109 89 61 81 0
-109 -89 0
-109 -61 0
-109 -81 0
-89 -61 0
-89 -81 0
-61 -81 0
92 0
-89 0
-90 0
-91 0
116 96 68 88 0
-116 -96 0
-116 -68 0
-116 -88 0
-96 -68 0
-96 -88 0
-68 -88 0
-93 -195 0
-93 -196 0
-94 195 0
-94 -196 0
-95 -195 0
-95 196 0
-96 195 0
-96 196 0
-93 117 89 0
-93 117 69 0
-93 89 69 0
-94 118 90 0
-94 118 70 0
-94 90 70 0
-95 119 91 0
-95 119 71 0
-95 91 71 0
-96 120 92 0
-96 120 72 0
-96 92 72 0
-93 -117 -89 -69 0
-94 -118 -90 -70 0
-95 -119 -91 -71 0
-96 -120 -92 -72 0
-97 -197 0
-97 -198 0
-98 197 0
-98 -198 0
-99 -197 0
-99 198 0
-100 197 0
-100 198 0
-97 121 101 0
-97 121 73 0
-97 101 73 0
-98 122 102 0
-98 122 74 0
-98 102 74 0
-99 123 103 0
-99 123 75 0
-99 103 75 0
-100 124 104 0
-100 124 76 0
-100 104 76 0
-97 -121 -101 -73 0
-98 -122 -102 -74 0
-99 -123 -103 -75 0
-100 -124 -104 -76 0
-101 -199 0
-101 -200 0
-102 199 0
-102 -200 0
-103 -199 0
-103 200 0
-104 199 0
-104 200 0
-101 125 105 77 0
-101 125 105 97 0
-101 125 77 97 0
-101 105 77 97 0
-102 126 106 78 0
-102 126 106 98 0
-102 126 78 98 0
-102 106 78 98 0
-103 127 107 79 0
-103 127 107 99 0
-103 127 79 99 0
-103 107 79 99 0
-104 128 108 80 0
-104 128 108 100 0
-104 128 80 100 0
-104 108 80 100 0
-101 -125 -105 -77 0
-101 -125 -105 -97 0
-101 -125 -77 -97 0
-101 -105 -77 -97 0
-102 -126 -106 -78 0
-102 -126 -106 -98 0
-102 -126 -78 -98 0
-102 -106 -78 -98 0
-103 -127 -107 -79 0
-103 -127 -107 -99 0
-103 -127 -79 -99 0
-103 -107 -79 -99 0
-104 -128 -108 -80 0
-104 -128 -108 -100 0
-104 -128 -80 -100 0
-104 -108 -80 -100 0
-105 -201 0
-105 -202 0
-106 201 0
-106 -202 0
-107 -201 0
-107 202 0
-108 201 0
-108 202 0
-105 129 109 81 0
-105 129 109 101 0
-105 129 81 101 0
-105 109 81 101 0
-106 130 110 82 0
-106 130 110 102 0
-106 130 82 102 0
-106 110 82 102 0
-107 131 111 83 0
-107 131 111 103 0
-107 131 83 103 0
-107 111 83 103 0
-108 132 112 84 0
-108 132 112 104 0
-108 132 84 104 0
-108 112 84 104 0
-105 -129 -109 -81 0
-105 -129 -109 -101 0
-105 -129 -81 -101 0
-105 -109 -81 -101 0
-106 -130 -110 -82 0
-106 -130 -110 -102 0
-106 -130 -82 -102 0
-106 -110 -82 -102 0
-107 -131 -111 -83 0
-107 -131 -111 -103 0
-107 -131 -83 -103 0
-107 -111 -83 -103 0
-108 -132 -112 -84 0
-108 -132 -112 -104 0
-108 -132 -84 -104 0
-108 -112 -84 -104 0
-109 -203 0
-109 -204 0
-110 203 0
-110 -204 0
-111 -203 0
-111 204 0
-112 203 0
-112 204 0
-109 133 113 85 0
-109 133 113 105 0
-109 133 85 105 0
-109 113 85 105 0
-110 134 114 86 0
-110 134 114 106 0
-110 134 86 106 0
-110 114 86 106 0
-111 135 115 87 0
-111 135 115 107 0
-111 135 87 107 0
-111 115 87 107 0
-112 136 116 88 0
-112 136 116 108 0
-112 136 88 108 0
-112 116 88 108 0
-109 -133 -113 -85 0
-109 -133 -113 -105 0
-109 -133 -85 -105 0
-109 -113 -85 -105 0
-110 -134 -114 -86 0
-110 -134 -114 -106 0
-110 -134 -86 -106 0
-110 -114 -86 -106 0
-111 -135 -115 -87 0
-111 -135 -115 -107 0
-111 -135 -87 -107 0
-111 -115 -87 -107 0
-112 -136 -116 -88 0
-112 -136 -116 -108 0
-112 -136 -88 -108 0
-112 -116 -88 -108 0
-113 -205 0
-113 -206 0
-114 205 0
-114 -206 0
-115 -205 0
-115 206 0
-116 205 0
-116 206 0
-113 137 117 89 0
-113 137 117 109 0
-113 137 89 109 0
-113 117 89 109 0
-114 138 118 90 0
-114 138 118 110 0
-114 138 90 110 0
-114 118 90 110 0
-115 139 119 91 0
-115 139 119 111 0
-115 139 91 111 0
-115 119 91 111 0
-116 140 120 92 0
-116 140 120 112 0
-116 140 92 112 0
-116 120 92 112 0
-113 -137 -117 -89 0
-113 -137 -117 -109 0
-113 -137 -89 -109 0
-113 -117 -89 -109 0
-114 -138 -118 -90 0
-114 -138 -118 -110 0
-114 -138 -90 -110 0
-114 -118 -90 -110 0
-115 -139 -119 -91 0
-115 -139 -119 -111 0
-115 -139 -91 -111 0
-115 -119 -91 -111 0
-116 -140 -120 -92 0
-116 -140 -120 -112 0
-116 -140 -92 -112 0
-116 -120 -92 -112 0
-117 -207 0
-117 -208 0
-118 207 0
-118 -208 0
-119 -207 0
-119 208 0
-120 207 0
-120 208 0
-117 141 113 0
-117 141 93 0
-117 113 93 0
-118 142 114 0
-118 142 94 0
-118 114 94 0
-119 143 115 0
-119 143 95 0
-119 115 95 0
-120 144 116 0
-120 144 96 0
-120 116 96 0
-117 -141 -113 -93 0
-118 -142 -114 -94 0
-119 -143 -115 -95 0
-120 -144 -116 -96 0
-121 -209 0
-121 -210 0
-122 209 0
-122 -210 0
-123 -209 0
-123 210 0
-124 209 0
-124 210 0
-121 97 0
-121 125 0
-122 98 0
-122 126 0
-123 99 0
-123 127 0
-124 100 0
-124 128 0
-125 -211 0
-125 -212 0
-126 211 0
-126 -212 0
-127 -211 0
-127 212 0
-128 211 0
-128 212 0
-125 101 129 0
-125 101 121 0
-125 129 121 0
-126 102 130 0
-126 102 122 0
-126 130 122 0
-127 103 131 0
-127 103 123 0
-127 131 123 0
-128 104 132 0
-128 104 124 0
-128 132 124 0
-125 -101 -129 -121 0
-126 -102 -130 -122 0
-127 -103 -131 -123 0
-128 -104 -132 -124 0
-129 -213 0
-129 -214 0
-130 213 0
-130 -214 0
-131 -213 0
-131 214 0
-132 213 0
-132 214 0
-129 105 133 0
-129 105 125 0
-129 133 125 0
-130 106 134 0
-130 106 126 0
-130 134 126 0
-131 107 135 0
-131 107 127 0
-131 135 127 0
-132 108 136 0
-132 108 128 0
-132 136 128 0
-129 -105 -133 -125 0
-130 -106 -134 -126 0
-131 -107 -135 -127 0
-132 -108 -136 -128 0
-133 -215 0
-133 -216 0
-134 215 0
-134 -216 0
-135 -215 0
-135 216 0
-136 215 0
-136 216 0
-133 109 137 0
-133 109 129 0
-133 137 129 0
-134 110 138 0
-134 110 130 0
-134 138 130 0
-135 111 139 0
-135 111 131 0
-135 139 131 0
-136 112 140 0
-136 112 132 0
-136 140 132 0
-133 -109 -137 -129 0
-134 -110 -138 -130 0
-135 -111 -139 -131 0
-136 -112 -140 -132 0
-137 -217 0
-137 -218 0
-138 217 0
-138 -218 0
-139 -217 0
-139 218 0
-140 217 0
-140 218 0
-137 113 141 0
-137 113 133 0
-137 141 133 0
-138 114 142 0
-138 114 134 0
-138 142 134 0
-139 115 143 0
-139 115 135 0
-139 143 135 0
-140 116 144 0
-140 116 136 0
-140 144 136 0
-137 -113 -141 -133 0
-138 -114 -142 -134 0
-139 -115 -143 -135 0
-140 -116 -144 -136 0
-141 -219 0
-141 -220 0
-142 219 0
-142 -220 0
-143 -219 0
-143 220 0
-144 219 0
-144 220 0
-141 117 0
-141 137 0
-142 118 0
-142 138 0
-143 119 0
-143 139 0
-144 120 0
-144 140 0
49 53 57 61 69 0
17 113 137 0
27 35 39 0
52 56 60 64 72 0
12 36 60 84 108 132 0
40 64 112 136 0